c generated by sgen1
c Command: ./sgen1 -unsat -n 13 
p cnf 13 36
-2 -3 -4 0
-1 -3 -4 0
-1 -2 -4 0
-1 -2 -3 0
-6 -7 -8 0
-5 -7 -8 0
-5 -6 -8 0
-5 -6 -7 0
-9 -10 -11  0
-9 -10 -12  0
-9 -10 -13  0
-9 -11 -12  0
-9 -11 -13  0
-9 -12 -13  0
-10 -11 -12  0
-10 -11 -13  0
-10 -12 -13  0
-11 -12 -13  0
5 11 7 0
2 11 7 0
2 5 7 0
2 5 11 0
6 10 13 0
4 10 13 0
4 6 13 0
4 6 10 0
12 8 1  0
12 8 3  0
12 8 9  0
12 1 3  0
12 1 9  0
12 3 9  0
8 1 3  0
8 1 9  0
8 3 9  0
1 3 9  0
